23 72 42 55 87 83 51 38 36 80 69 25 99 67 74 41 85 12 89 10 15 37 35 30 68 64 11 52 95 61 71 78 53 40 62 60 19 34 18 94 54 1 3 6 2 47 20 97 66 21 76 22 26 28 33 0 86 4 96 58 48 57 43 46 82 29 91 24 63 73 75 45 27 32 17 65 50 8 7 9 39 49 79 81 59 16 93 56 88 31 84 70 92 77 44 14 5 13 98 90
